10  10
  0  50  1  23  2  35  3  8  4  41  5  71  6  44  7  79  8  85  9  22
  0  37  1  75  2  94  3  76  4  17  5  28  6  99  7  36  8  14  9  96
  0  25  1  80  2  36  3  37  4  1  5  31  6  16  7  56  8  53  9  71
  0  86  1  15  2  17  3  60  4  46  5  50  6  20  7  38  8  76  9  8
  0  51  1  22  2  34  3  14  4  11  5  53  6  40  7  35  8  9  9  15
  0  21  1  97  2  48  3  61  4  77  5  67  6  14  7  6  8  95  9  7
  0  68  1  72  2  20  3  67  4  1  5  2  6  48  7  85  8  89  9  62
  0  29  1  81  2  91  3  25  4  60  5  76  6  44  7  76  8  28  9  95
  0  52  1  1  2  29  3  13  4  6  5  45  6  64  7  41  8  32  9  46
  0  14  1  91  2  92  3  98  4  99  5  56  6  79  7  66  8  25  9  79
